(set-logic FO)
(declare-sort Term 0)
(declare-fun f (Term) Bool)
(declare-fun g (Term) Bool)
(declare-fun h (Term) Bool)
(declare-fun i (Term) Bool)
(declare-fun j (Term) Bool)
(set-info :status unsat)
(assert (not (exists ((x Term)) (and (f x) (or (g x) (h x))))))
(assert (exists ((x Term)) (and (i x) (f x))))
(assert (forall ((x Term)) (=> (not (h x)) (j x))))
(assert (not (exists ((x Term)) (and (i x) (j x)))))
(check-sat)
(exit)
